20	5
0	7	4	3	5	2	1	6	18
1	2	13	19
2	1	8
3	1	12
4	1	14
5	1	17
6	1	7
7	2	15	20
8	1	9
9	1	11
10	1	16
11	2	12	10
12	1	21
13	1	21
14	1	21
15	1	21
16	1	21
17	1	21
18	1	21
19	1	21
20	1	21
21	0
0	0	0	0	0	0	0
1	9	0	2	1	3	5
2	8	4	5	0	4	0
3	6	0	0	0	0	4
4	7	0	2	0	3	0
5	5	0	0	0	0	3
6	8	4	0	4	5	4
7	3	0	0	0	0	5
8	5	0	1	2	0	4
9	8	3	0	0	0	0
10	2	1	2	2	1	2
11	7	3	0	4	2	0
12	7	5	3	5	0	0
13	8	0	0	0	5	0
14	9	4	0	5	0	1
15	6	2	0	2	0	4
16	6	0	2	0	0	0
17	9	2	0	4	3	0
18	7	2	4	0	4	2
19	10	1	5	3	0	0
20	4	0	0	0	0	4
21	0	0	0	0	0	0
5	5	5	5	5
